qbf_easy_train/easy_1195_UNSAT.qdimacs
p cnf 45 131
a 8 3 13 0
e 1 2 4 5 6 7 9 10 11 12 14 15 16 17 18 19 20 21 22 23 24 25 26 27 28 29 30 31 32 33 34 35 36 37 38 39 40 41 42 43 44 45 0
2 1 0
2 1 0
-1 -2 0
-5 -1 0
-5 -4 0
1 4 5 0
6 -3 0
6 -5 0
3 5 -6 0
-9 -7 0
-9 8 0
7 -8 9 0
-9 10 -11 0
9 -10 -11 0
-9 -10 11 0
9 10 11 0
-12 6 0
-12 11 0
-6 -11 12 0
14 -13 0
14 -7 0
13 7 -14 0
3 14 -15 0
-3 -14 -15 0
3 -14 15 0
-3 14 15 0
17 -4 0
17 -16 0
4 16 -17 0
-18 -17 0
-18 -8 0
17 8 18 0
19 -9 0
19 18 0
9 -18 -19 0
20 15 0
20 -19 0
-15 19 -20 0
21 -12 0
21 20 0
12 -20 -21 0
-22 1 0
-22 -1 0
-3 -18 -23 0
3 18 -23 0
-3 18 23 0
3 -18 23 0
24 5 0
24 23 0
-5 -23 -24 0
-22 -24 -25 0
22 24 -25 0
-22 24 25 0
22 -24 25 0
26 -9 0
26 8 0
9 -8 -26 0
-27 25 0
-27 -26 0
-25 26 27 0
28 23 0
28 17 0
-23 -17 -28 0
-1 -3 -29 0
1 3 -29 0
-1 3 29 0
1 -3 29 0
-30 -15 0
-30 -3 0
15 3 30 0
31 -14 0
31 -8 0
14 8 -31 0
32 -30 0
32 -31 0
30 31 -32 0
-33 -29 0
-33 -32 0
29 32 33 0
34 -28 0
34 -33 0
28 33 -34 0
-35 -3 0
-35 -9 0
3 9 35 0
-15 8 -36 0
15 -8 -36 0
-15 -8 36 0
15 8 36 0
37 -30 0
37 -36 0
30 36 -37 0
38 3 0
38 -13 0
-3 13 -38 0
39 38 0
39 16 0
-38 -16 -39 0
37 -39 -40 0
-37 39 -40 0
37 39 40 0
-37 -39 40 0
-41 -35 0
-41 40 0
35 -40 41 0
42 -34 0
42 -41 0
34 41 -42 0
27 -42 -43 0
-27 42 -43 0
27 42 43 0
-27 -42 43 0
44 -21 0
44 43 0
21 -43 -44 0
45 2 0
45 -44 0
-2 44 -45 0
-5 31 35 -36 0
-39 25 -21 24 -26 -44 0
-35 1 -6 0
-7 16 -37 0
11 -23 8 -4 29 -28 36 -17 0
-8 15 -27 33 -6 -39 0
21 3 19 45 -44 0
13 31 -43 42 0
33 -22 41 18 -4 -45 -3 0
-9 -19 0
-34 12 0
-37 -2 -4 0
45 0
