sat_easy_train/easy_1195_UNSAT.dimacs
p cnf 89 268
-4 2 0
-4 3 0
-2 -3 4 0
-5 4 0
-5 -3 0
-4 3 5 0
6 -1 0
6 5 0
1 -5 -6 0
-9 7 0
-9 -8 0
-7 8 9 0
11 9 0
11 -10 0
-9 10 -11 0
12 -11 0
12 4 0
11 -4 -12 0
-13 -6 0
-13 -12 0
6 12 13 0
-14 -13 0
-14 -10 0
13 10 14 0
-15 -14 0
-15 -7 0
14 7 15 0
15 -16 -17 0
-15 16 -17 0
15 16 17 0
-15 -16 17 0
21 19 0
21 -20 0
-19 20 -21 0
22 18 0
22 -21 0
-18 21 -22 0
23 22 0
23 -3 0
-22 3 -23 0
24 17 0
24 23 0
-17 -23 -24 0
-12 -11 -25 0
12 11 -25 0
-12 11 25 0
12 -11 25 0
-26 22 0
-26 25 0
-22 -25 26 0
-27 -22 0
-27 -26 0
22 26 27 0
28 -6 0
28 -27 0
6 27 -28 0
29 -24 0
29 -28 0
24 28 -29 0
-31 -30 0
-31 6 0
30 -6 31 0
-32 31 0
-32 -10 0
-31 10 32 0
-33 8 0
-33 19 0
-8 -19 33 0
-34 7 0
-34 -30 0
-7 30 34 0
7 34 -35 0
-7 -34 -35 0
7 -34 35 0
-7 34 35 0
-37 36 0
-37 -22 0
-36 22 37 0
-38 37 0
-38 -13 0
-37 13 38 0
39 -9 0
39 12 0
9 -12 -39 0
-40 -22 0
-40 -39 0
22 39 40 0
41 -8 0
41 40 0
8 -40 -41 0
42 38 0
42 -41 0
-38 41 -42 0
35 42 -43 0
-35 -42 -43 0
35 -42 43 0
-35 42 43 0
33 -43 -44 0
-33 43 -44 0
33 43 44 0
-33 -43 44 0
45 -10 0
45 9 0
10 -9 -45 0
47 46 0
47 -18 0
-46 18 -47 0
-48 -45 0
-48 47 0
45 -47 48 0
-50 48 0
-50 -49 0
-48 49 50 0
51 44 0
51 50 0
-44 -50 -51 0
-52 18 0
-52 -8 0
-18 8 52 0
53 51 0
53 52 0
-51 -52 -53 0
54 32 0
54 53 0
-32 -53 -54 0
55 29 0
55 54 0
-29 -54 -55 0
-56 3 0
-56 -20 0
-3 20 56 0
-57 34 0
-57 -36 0
-34 36 57 0
58 -57 0
58 20 0
57 -20 -58 0
59 -3 -60 0
-59 3 -60 0
59 3 60 0
-59 -3 60 0
-58 -60 -61 0
58 60 -61 0
-58 60 61 0
58 -60 61 0
62 56 0
62 -61 0
-56 61 -62 0
-63 -18 0
-63 4 0
18 -4 63 0
64 8 0
64 -63 0
-8 63 -64 0
39 -25 -65 0
-39 25 -65 0
39 25 65 0
-39 -25 65 0
67 1 0
67 25 0
-1 -25 -67 0
68 66 0
68 67 0
-66 -67 -68 0
-69 65 0
-69 68 0
-65 -68 69 0
-70 64 0
-70 69 0
-64 -69 70 0
-71 -10 0
-71 -63 0
10 63 71 0
-70 -71 -72 0
70 71 -72 0
-70 71 72 0
70 -71 72 0
63 -6 -73 0
-63 6 -73 0
63 6 73 0
-63 -6 73 0
74 73 0
74 -12 0
-73 12 -74 0
75 -48 0
75 -34 0
48 34 -75 0
-76 -20 0
-76 -49 0
20 49 76 0
-77 75 0
-77 76 0
-75 -76 77 0
78 47 0
78 36 0
-47 -36 -78 0
79 -77 0
79 78 0
77 -78 -79 0
80 74 0
80 -79 0
-74 79 -80 0
81 72 0
81 -80 0
-72 80 -81 0
-82 25 0
-82 8 0
-25 -8 82 0
83 -81 0
83 82 0
81 -82 -83 0
84 62 0
84 -83 0
-62 83 -84 0
4 -65 -85 0
-4 65 -85 0
4 65 85 0
-4 -65 85 0
86 40 0
86 -13 0
-40 13 -86 0
-85 -86 -87 0
85 86 -87 0
-85 86 87 0
85 -86 87 0
88 84 0
88 -87 0
-84 87 -88 0
-55 -88 -89 0
55 88 -89 0
-55 88 89 0
55 -88 89 0
-38 86 -80 0
-87 77 -52 80 0
-32 -42 -29 0
-87 -11 34 0
12 55 84 52 0
85 -8 30 21 -7 74 0
85 61 73 20 -70 -60 0
-54 56 -63 -7 0
51 -12 60 70 84 0
2 -14 -42 -58 68 45 0
-45 -89 -80 24 12 79 0
72 73 -77 53 0
-78 48 74 -79 23 -22 0
31 28 42 58 -85 0
74 87 -5 -52 0
-73 -33 22 0
-4 -79 -83 50 32 0
81 34 0
-69 -51 -38 -59 -52 0
-35 -71 72 -37 0
76 4 0
22 -63 0
-67 -27 -43 2 75 0
-23 -27 5 84 -46 0
-28 -3 0
-24 -74 10 0
23 -86 -55 30 -6 0
83 -5 46 9 0
-84 -35 20 0
59 -79 65 88 -16 0
-81 -79 -58 -8 0
11 17 -82 0
6 60 68 36 -26 -32 0
-8 -6 23 0
39 -59 -73 -38 0
89 0
